n=20;
t=24;
profit=[10 2 9 7 2 5 2 3 3 9 9 6 2 6 9 2 9 8 10 1];
length=[2 3 4 4 4 1 1 5 1 3 3 4 2 2 3 1 3 4 2 5];
min_deliver=[12 7 11 4 14 7 12 11 10 5 1 9 8 1 4 10 5 1 16 3];
max_deliver=[13 9 15 8 17 17 14 14 11 22 5 14 8 2 4 22 15 21 19 12];
surface=[1 1 5 1 3 3 4 2 4 3 1 5 5 4 2 2 1 5 2 5];
surface_capacity=18;
